modelo_transporte-produtos.out
lucro total: 22500

quant. de produto 1 -> 200
quant. de produto 2 -> 100
quant. de produto 3 -> 200
quant. de produto 4 -> bloqueado
quant. de produto 5 -> bloqueado

total produzido -> 800